problems/csplib-prob013/ProgressivePartyProblem-models/noch/O2/lingeling/model_2_1-Ian05-solution000001.solution
language Essence 1.3

letting hosts be {3, 4, 5, 8, 9}
letting sched be
        {function(1 --> 3, 2 --> 9, 3 --> 3, 4 --> 4, 5 --> 5, 6 --> 9, 7 --> 8, 8 --> 8, 9 --> 9),
         function(1 --> 4, 2 --> 8, 3 --> 3, 4 --> 4, 5 --> 5, 6 --> 3, 7 --> 9, 8 --> 8, 9 --> 9),
         function(1 --> 5, 2 --> 5, 3 --> 3, 4 --> 4, 5 --> 5, 6 --> 4, 7 --> 5, 8 --> 8, 9 --> 9),
         function(1 --> 8, 2 --> 3, 3 --> 3, 4 --> 4, 5 --> 5, 6 --> 5, 7 --> 4, 8 --> 8, 9 --> 9),
         function(1 --> 9, 2 --> 4, 3 --> 3, 4 --> 4, 5 --> 5, 6 --> 8, 7 --> 3, 8 --> 8, 9 --> 9)}
